&CONTROL
  calculation = 'scf'
  outdir = './tmp/'
  prefix = 'pwscf'
  pseudo_dir = '/leonardo/home/userexternal/fmambret/PSEUDOPOTENTIALS'
  tprnfor = .true.
  tstress = .true.
  verbosity = 'high'
  disk_io='low'
/

&SYSTEM
  degauss = 1.4699723600d-02
  ecutrho     = 540
  ecutwfc     = 90
  ibrav       = 0
  nat= 328  !number of atoms
  ntyp=5
  occupations = "smearing"
  smearing = 'gaussian'
  tot_charge = 0
/

&ELECTRONS
  diagonalization = 'david'
  conv_thr         =  1.00000e-07
  electron_maxstep =  100
  mixing_beta =   2.0000000000d-01
  startingpot      = "atomic"
  startingwfc      = "atomic+random"
/

ATOMIC_SPECIES
Li   6.94100 li_pbe_v1.4.uspp.F.UPF
Cr 51.9961 cr_pbe_v1.5.uspp.F.UPF
N   14.00674 N.pbe-n-radius_5.UPF
O 15.9994 O.pbe-n-kjpaw_psl.0.1.UPF
H 1.00794 H.pbe-rrkjus_psl.1.0.0.UPF

K_POINTS {gamma}

CELL_PARAMETERS {angstrom}
17.111041116 0.0 0.0
-5.703680372 9.879064196 0.0
0.0 0.0 45.1553882112

ATOMIC_POSITIONS {angstrom}
 Li         4.437370000000        1.493930000000       15.000000000000
 Li         2.191220000000        3.095900000000       15.000000000000
 Li         1.926950000000        0.349703000000       15.000000000000
 Li        -1.824900000000        3.136810000000       21.969600000000
 Li         0.464313000000        1.756470000000       22.141100000000
 Li         0.925983000000        4.615030000000       21.913600000000
 Li         1.146330000000        1.547810000000       17.686400000000
 Li         3.790070000000        0.218857000000       17.686400000000
 Li         3.619100000000        3.172870000000       17.686400000000
 Li         1.851150000000        3.430620000000       19.037500000000
 Li        -1.200960000000        4.632480000000       19.127300000000
 Li        -0.885352000000        1.909160000000       19.184300000000
 Li         0.000000000000        0.000000000000       16.472700000000
 Li        11.300900000000        9.904940000000       20.500200000000
 Cr         2.755370000000        1.637850000000       20.661500000000
 Cr         0.000000000003        3.293020000000       16.219400000000
 N          4.308180000000        1.649050000000       21.264100000000
 N          2.714470000000        1.502590000000       18.881000000000
 N         -1.658640000000        3.392740000000       15.688200000000
 N          0.742967000000        1.806730000000       15.688200000000
 N          0.915680000000        4.679590000000       15.688200000000
 N          1.982040000000        0.138912000000       21.060700000000
 N          1.910930000000        3.061880000000       21.249800000000
 N          0.000000000003        3.293020000000       17.962100000000
 O         11.319700000000        9.653530000000       18.428100000000
 Li         4.170360000000        1.381310000000       23.652400000000
 Li         2.024070000000        2.924760000000       23.365500000000
 Li         1.981140000000        0.181445000000       23.523200000000
 Li        -1.384340000000        3.394880000000       30.615100000000
 Li         2.054210000000        3.314300000000       27.506600000000
 Li        -1.723460000000        9.837450000000       26.154800000000
 Li         3.615910000000        2.749720000000       26.207500000000
 Li        -0.148154000000        9.643650000000       24.936600000000
 Li         6.161960000000        4.747230000000       26.264800000000
 Li         0.973947000000        1.979270000000       30.831100000000
 Li        -2.885390000000        8.530200000000       29.617700000000
 Li        14.939400000000        2.812990000000       26.387300000000
 Li        15.420900000000       -0.012599000000       26.534800000000
 Li        -3.551770000000        6.489560000000       27.668600000000
 Cr         2.969520000000        1.582620000000       29.264700000000
 Cr        -0.088225500000        3.204170000000       24.910500000000
 N          4.636430000000        1.613960000000       29.672900000000
 N          3.102240000000        1.539370000000       27.425900000000
 N         -1.785070000000        3.117000000000       24.289600000000
 N          0.686812000000        1.698550000000       24.190700000000
 N          0.585947000000        4.615810000000       24.151700000000
 N          2.208660000000        0.332891000000       30.103300000000
 N          2.299550000000        2.988620000000       30.022200000000
 N          0.094991000000        3.144210000000       26.589600000000
 O         11.464200000000        9.964260000000       26.932600000000
 Li         1.585520000000        6.433470000000       15.000000000000
 Li        -0.660617000000        8.035430000000       15.000000000000
 Li        -0.924892000000        5.289240000000       15.000000000000
 Li        -4.639590000000        8.545150000000       21.996800000000
 Li        -2.402910000000        7.011880000000       21.022600000000
 Li        -1.713310000000        9.342920000000       21.620900000000
 Li        -1.705510000000        6.487340000000       17.686400000000
 Li         0.938227000000        5.158390000000       17.686400000000
 Li         0.767265000000        8.112400000000       17.686400000000
 Li        -1.295160000000        8.215340000000       19.186600000000
 Li        -3.772520000000        9.782510000000       19.079900000000
 Li        -3.645840000000        6.787900000000       19.349500000000
 Li        14.259200000000        4.939530000000       16.472700000000
 Li        14.240700000000        4.772730000000       20.405400000000
 Cr        -0.066817600000        6.428780000000       20.559600000000
 Cr        -2.851840000000        8.232550000000       16.219400000000
 N          1.424390000000        6.440270000000       21.505500000000
 N          0.053963200000        6.366350000000       18.803400000000
 N         -4.510480000000        8.332270000000       15.688200000000
 N         -2.108880000000        6.746270000000       15.688200000000
 N         -1.936150000000        9.619120000000       15.688200000000
 N         -1.094990000000        5.116390000000       21.143800000000
 N         -0.655204000000        7.992900000000       20.958700000000
 N         -2.851840000000        8.232550000000       17.962100000000
 O         14.224800000000        4.693710000000       18.298000000000
 Li         1.483680000000        6.332120000000       23.428900000000
 Li        -0.823378000000        7.712310000000       23.899900000000
 Li        -1.694250000000        6.747150000000       26.526900000000
 Li        -0.908373000000        8.187040000000       32.046800000000
 Li        12.283600000000        4.849630000000       26.225600000000
 Li         7.174990000000        3.310740000000       27.983400000000
 Li        -1.157030000000        5.215210000000       23.264000000000
 Li         0.387527000000        5.006360000000       25.982000000000
 Li        -5.517520000000        9.305400000000       30.245100000000
 Li        12.559500000000        4.764720000000       30.670800000000
 Li         4.890990000000        1.549310000000       27.716800000000
 Li         1.221980000000        4.566570000000       30.672800000000
 Li         6.712200000000        1.503310000000       30.681100000000
 Li        10.650300000000        1.311710000000       27.319800000000
 Cr         0.009451710000        6.688590000000       29.203100000000
 Cr        -3.071030000000        7.979960000000       24.992000000000
 N          1.695630000000        6.500910000000       29.712200000000
 N         -0.089600700000        6.436190000000       27.440900000000
 N         -4.613310000000        8.047920000000       24.139500000000
 N         -2.370590000000        6.511350000000       24.367700000000
 N         -1.842900000000        9.276620000000       24.339800000000
 N         -1.071310000000        5.073920000000       29.657800000000
 N         -0.780981000000        8.212280000000       29.685000000000
 N         -2.959530000000        8.192540000000       26.715400000000
 O         14.123300000000        4.875530000000       27.053900000000
 Li        10.141000000000        1.493930000000       15.000000000000
 Li         7.894900000000        3.095900000000       15.000000000000
 Li         7.630630000000        0.349703000000       15.000000000000
 Li         4.070070000000        3.381160000000       21.844400000000
 Li         6.254340000000        1.678110000000       21.938600000000
 Li         6.445100000000        4.328930000000       21.933300000000
 Li         6.850020000000        1.547810000000       17.686400000000
 Li         9.493740000000        0.218857000000       17.686400000000
 Li         9.322800000000        3.172870000000       17.686400000000
 Li         7.164790000000        3.268760000000       19.189400000000
 Li         4.708170000000        4.741350000000       19.211600000000
 Li         4.813950000000        1.763860000000       19.213100000000
 Li         5.703670000000        0.000000000000       16.472700000000
 Li         5.645290000000       -0.007881970000       20.128200000000
 Cr         8.472070000000        1.604130000000       20.608100000000
 Cr         5.703670000000        3.293020000000       16.219400000000
 N         10.172500000000        1.352660000000       21.179700000000
 N          8.528850000000        1.521230000000       18.906100000000
 N          4.045040000000        3.392740000000       15.688200000000
 N          6.446640000000        1.806730000000       15.688200000000
 N          6.619350000000        4.679590000000       15.688200000000
 N          7.417990000000        0.223736000000       21.083700000000
 N          7.771560000000        3.051980000000       21.207000000000
 N          5.703670000000        3.293020000000       17.962100000000
 O          0.031232600000        9.733280000000       18.458000000000
 Li        10.070600000000        1.301630000000       23.382500000000
 Li         7.754440000000        2.994180000000       23.358400000000
 Li         7.521160000000       -0.002247240000       23.617900000000
 Li        10.144900000000        8.324620000000       28.245700000000
 Li         0.916558000000        7.997330000000       26.354900000000
 Li        12.470600000000        7.620680000000       33.176600000000
 Li         9.791630000000        3.304020000000       30.656000000000
 Li         4.706450000000        4.459130000000       27.942400000000
 Li         6.952660000000        1.553410000000       26.157800000000
 Li         7.337760000000        5.469110000000       32.000100000000
 Li         6.355780000000        3.934840000000       30.408400000000
 Li         8.631870000000        4.841430000000       25.145100000000
 Li         2.008320000000        9.468490000000       27.794100000000
 Li        10.203700000000        5.866970000000       31.925300000000
 Cr         8.725510000000        1.724710000000       29.016400000000
 Cr         5.520570000000        3.060880000000       24.643700000000
 N         10.332600000000        1.701700000000       29.193400000000
 N          8.581930000000        1.648090000000       27.350400000000
 N          3.931530000000        3.171440000000       23.933700000000
 N          6.383110000000        1.619710000000       24.056300000000
 N          6.589430000000        4.488350000000       24.284700000000
 N          7.996580000000        0.155800000000       29.790900000000
 N          7.958630000000        3.077350000000       29.644100000000
 N          5.455880000000        3.048590000000       26.406600000000
 O          0.175240000000        9.693480000000       27.082000000000
 Li         7.289200000000        6.433470000000       15.000000000000
 Li         5.043060000000        8.035430000000       15.000000000000
 Li         4.778780000000        5.289240000000       15.000000000000
 Li         1.098740000000        8.333840000000       21.742300000000
 Li         3.353990000000        6.865130000000       21.908600000000
 Li         3.773350000000        9.362850000000       22.191700000000
 Li         3.998180000000        6.487340000000       17.686400000000
 Li         6.641900000000        5.158390000000       17.686400000000
 Li         6.470960000000        8.112400000000       17.686400000000
 Li         4.677480000000        8.182210000000       19.159100000000
 Li         1.885450000000        9.271810000000       19.468000000000
 Li         2.036500000000        6.807750000000       19.005300000000
 Li         2.851830000000        4.939530000000       16.472700000000
 Li         2.664560000000        4.928400000000       20.505900000000
 Cr         5.625720000000        6.485950000000       20.680900000000
 Cr         2.851830000000        8.232550000000       16.219400000000
 N          7.330040000000        6.390250000000       21.483300000000
 N          5.553990000000        6.613350000000       18.844400000000
 N          1.193200000000        8.332270000000       15.688200000000
 N          3.594800000000        6.746270000000       15.688200000000
 N          3.767520000000        9.619120000000       15.688200000000
 N          4.641120000000        5.170660000000       21.065800000000
 N          4.901360000000        7.965810000000       21.347800000000
 N          2.851830000000        8.232550000000       17.962100000000
 O          2.803310000000        4.938730000000       18.238600000000
 Li         7.357250000000        6.109550000000       23.534600000000
 Li         5.300990000000        7.881180000000       23.776300000000
 Li         4.612620000000        5.234970000000       23.597700000000
 Li        14.304900000000        4.778960000000       24.928000000000
 Li         1.180940000000        1.396730000000       26.168100000000
 Li         2.995910000000        4.846750000000       29.085900000000
 Li         2.021230000000        6.533730000000       27.650800000000
 Li         6.232140000000        7.933860000000       26.557900000000
 Li         5.490340000000        9.448240000000       25.123400000000
 Li         0.056538900000        9.966590000000       29.111100000000
 Li        -1.843270000000        6.677400000000       31.034200000000
 Li        10.489200000000        4.094290000000       27.875200000000
 Li         2.695710000000        4.812900000000       25.084600000000
 Li         0.948400000000        8.697660000000       30.626200000000
 Cr         5.490710000000        6.278390000000       29.415400000000
 Cr         2.758660000000        8.024310000000       24.837000000000
 N          6.066580000000        7.236430000000       30.832400000000
 N          5.391770000000        6.187670000000       27.685700000000
 N          1.172590000000        8.116930000000       24.235400000000
 N          3.490330000000        6.507100000000       24.360400000000
 N          3.690180000000        9.360660000000       24.081500000000
 N          4.640000000000        4.875640000000       29.825600000000
 N          5.176750000000        8.218580000000       29.969200000000
 N          2.841120000000        8.191360000000       26.568600000000
 O          2.870440000000        4.957440000000       27.229200000000
 Li        15.844700000000        1.493930000000       15.000000000000
 Li        13.598600000000        3.095900000000       15.000000000000
 Li        13.334300000000        0.349703000000       15.000000000000
 Li         9.702440000000        3.139600000000       21.990200000000
 Li        11.968400000000        1.756370000000       22.090000000000
 Li        12.247600000000        4.498570000000       21.797500000000
 Li        12.553700000000        1.547810000000       17.686400000000
 Li        15.197400000000        0.218857000000       17.686400000000
 Li        15.026500000000        3.172870000000       17.686400000000
 Li        12.883300000000        3.341710000000       19.288500000000
 Li        10.381900000000        4.867110000000       18.877400000000
 Li        10.642300000000        1.320970000000       19.128100000000
 Li        11.407400000000        0.000000000000       16.472700000000
 Li         5.721260000000        9.873630000000       20.649500000000
 Cr        14.223100000000        1.469990000000       20.669900000000
 Cr        11.407400000000        3.293020000000       16.219400000000
 N         15.899600000000        1.496150000000       21.234200000000
 N         14.172600000000        1.571720000000       18.921800000000
 N          9.748710000000        3.392740000000       15.688200000000
 N         12.150300000000        1.806730000000       15.688200000000
 N         12.323000000000        4.679590000000       15.688200000000
 N          7.549950000000        9.951180000000       21.148600000000
 N         13.385700000000        2.957350000000       21.271800000000
 N         11.407400000000        3.293020000000       17.962100000000
 O          5.864630000000        9.702890000000       18.446400000000
 Li        15.593100000000        1.364050000000       23.859100000000
 Li        13.656000000000        2.826080000000       23.693800000000
 Li        13.246000000000        0.079303800000       23.444200000000
 Li         8.285390000000        4.890040000000       29.184100000000
 Li         4.281190000000        3.218690000000       30.790800000000
 Li         3.995460000000        6.270510000000       26.569500000000
 Li        14.255600000000        4.863630000000       29.339300000000
 Li        -1.163980000000        4.776880000000       27.710800000000
 Li        13.135600000000        3.419010000000       27.970700000000
 Li         8.392310000000        7.995880000000       30.914800000000
 Li         4.366820000000        0.189583000000       30.665500000000
 Li         7.517670000000        8.912980000000       28.334200000000
 Li         9.316400000000        0.046142100000       26.041000000000
 Li         4.585420000000        8.522920000000       28.202100000000
 Cr        14.365000000000        1.318200000000       29.482100000000
 Cr        11.325900000000        2.839990000000       24.933900000000
 N         16.245300000000        1.283060000000       30.173900000000
 N         14.603000000000        1.264720000000       27.900200000000
 N          9.657350000000        3.243800000000       24.296500000000
 N         12.083700000000        1.499810000000       24.125700000000
 N         12.092600000000        4.268510000000       24.325200000000
 N         13.260300000000       -0.104367000000       30.116100000000
 N         13.702900000000        2.814300000000       29.778100000000
 N         11.525500000000        2.952820000000       26.634700000000
 O          5.705480000000        9.638150000000       27.164200000000
 Li        12.992900000000        6.433470000000       15.000000000000
 Li        10.746700000000        8.035430000000       15.000000000000
 Li        10.482500000000        5.289240000000       15.000000000000
 Li         7.078850000000        8.294180000000       21.863900000000
 Li         9.205990000000        6.535960000000       22.214200000000
 Li         9.367150000000        9.392690000000       22.015900000000
 Li         9.701860000000        6.487340000000       17.686400000000
 Li        12.345600000000        5.158390000000       17.686400000000
 Li        12.174600000000        8.112400000000       17.686400000000
 Li        10.269800000000        8.368000000000       19.159600000000
 Li         7.416020000000        9.531140000000       19.335200000000
 Li         7.718400000000        6.486530000000       19.547900000000
 Li         8.555530000000        4.939530000000       16.472700000000
 Li         8.598490000000        4.998080000000       20.588000000000
 Cr        11.376900000000        6.528200000000       20.761200000000
 Cr         8.555530000000        8.232550000000       16.219400000000
 N         12.938900000000        6.274270000000       21.552700000000
 N         11.523800000000        6.662490000000       18.960400000000
 N          6.896870000000        8.332270000000       15.688200000000
 N          9.298470000000        6.746270000000       15.688200000000
 N          9.471200000000        9.619120000000       15.688200000000
 N         10.447300000000        5.152490000000       21.100900000000
 N         10.603500000000        7.947710000000       21.277900000000
 N          8.555530000000        8.232550000000       17.962100000000
 O          8.406510000000        5.044800000000       18.472900000000
 Li        12.989600000000        6.024300000000       23.461000000000
 Li        10.806500000000        7.618780000000       23.929300000000
 Li        10.071500000000        4.864220000000       23.777000000000
 Li         7.786840000000        6.293810000000       27.508700000000
 Li        12.657200000000        0.687719000000       26.256000000000
 Li        -1.052510000000        8.729770000000       27.841700000000
 Li        11.956100000000        7.766560000000       26.166800000000
 Li        -0.500538000000        1.375530000000       28.117000000000
 Li        11.246900000000        9.727450000000       24.900400000000
 Li        -3.920300000000        9.682810000000       27.448700000000
 Li         9.804910000000        6.235350000000       26.378800000000
 Li        11.521700000000        0.322002000000       29.236600000000
 Li         9.183300000000        3.022510000000       26.350100000000
 Li        11.967600000000        2.468610000000       30.416800000000
 Cr        11.093900000000        6.094100000000       29.113700000000
 Cr         8.467760000000        8.068650000000       24.932000000000
 N         12.917600000000        6.527500000000       29.786200000000
 N         11.366000000000        6.211620000000       27.490500000000
 N          6.846790000000        8.109390000000       24.370100000000
 N          9.150780000000        6.555540000000       24.372000000000
 N          9.375920000000        9.310940000000       24.154900000000
 N         10.972900000000        4.438550000000       29.700800000000
 N          9.706230000000        7.101300000000       29.657500000000
 N          8.498340000000        8.243300000000       26.800500000000
 O          8.491150000000        4.786320000000       26.991300000000
 N          8.700060000000        6.488970000000       32.856200000000
 H          7.030150000000        5.774980000000       29.873500000000
 H          8.254130000000        5.950500000000       33.744600000000
 H          9.190970000000        7.061890000000       33.459000000000
 N         -5.356670000000        9.347250000000       32.803900000000
 H         11.146600000000       10.199200000000       32.744000000000
 H          3.105880000000        9.612660000000       30.344400000000
 H          1.186260000000        0.030049600000       33.072900000000
 N          6.224880000000        3.927950000000       32.296800000000
 H         12.617400000000        6.869900000000       30.671300000000
 H         16.067100000000        1.381840000000       31.295700000000
 H          6.381800000000        3.463830000000       33.228000000000
 N         11.974100000000        5.005370000000       32.722600000000
 H          5.661870000000        4.807290000000       32.565900000000
 H         12.772300000000        4.686750000000       33.278000000000
 H         11.373500000000        4.459780000000       33.373100000000
 N          0.184547000000        9.875590000000       32.370100000000
 H          0.946455000000        9.460830000000       32.776800000000
 H          5.584900000000        0.670092000000       33.007400000000
 H          7.317380000000        9.866170000000       31.122500000000
 N         -2.651040000000        7.361490000000       32.641800000000
 H         -2.771940000000        8.271240000000       32.914500000000
 H         -2.065450000000        6.961980000000       33.397300000000
 H         -0.229052000000        4.552040000000       29.681700000000
 N         -0.195054000000        3.879160000000       32.325300000000
 H          4.183660000000        8.393030000000       30.461000000000
 H          0.505003000000        3.660640000000       33.045600000000
 H         -0.495645000000        4.784260000000       32.833300000000
