&inputPP
   prefix         =  'pwscf'
   outdir         =  'tmp'
   plot_num       =  21
   filplot        =  'MO'
/
&plot
   nfile          =  1
   output_format  =  6
   iflag          =  3
   fileout        =  'density_all.cube'
/ 
